Minimize
 obj: 0 X_0_1
Subject To
 out_0:
  + 1 X_0_1 + 1 X_0_2 + 1 X_0_3 + 1 X_0_4
  = 1
 in_0:
  + 1 X_1_0 + 1 X_2_0 + 1 X_3_0 + 1 X_4_0
  = 1
 out_1:
  + 1 X_1_0 + 1 X_1_2 + 1 X_1_3 + 1 X_1_4
  = 1
 in_1:
  + 1 X_0_1 + 1 X_2_1 + 1 X_3_1 + 1 X_4_1
  = 1
 out_2:
  + 1 X_2_0 + 1 X_2_1 + 1 X_2_3 + 1 X_2_4
  = 1
 in_2:
  + 1 X_0_2 + 1 X_1_2 + 1 X_3_2 + 1 X_4_2
  = 1
 out_3:
  + 1 X_3_0 + 1 X_3_1 + 1 X_3_2 + 1 X_3_4
  = 1
 in_3:
  + 1 X_0_3 + 1 X_1_3 + 1 X_2_3 + 1 X_4_3
  = 1
 out_4:
  + 1 X_4_0 + 1 X_4_1 + 1 X_4_2 + 1 X_4_3
  = 1
 in_4:
  + 1 X_0_4 + 1 X_1_4 + 1 X_2_4 + 1 X_3_4
  = 1
 mtz_1_2:
  + 1 U1 - 1 U2 + 4 X_1_2
  <= 3
 mtz_1_3:
  + 1 U1 - 1 U3 + 4 X_1_3
  <= 3
 mtz_1_4:
  + 1 U1 - 1 U4 + 4 X_1_4
  <= 3
 mtz_2_1:
  + 1 U2 - 1 U1 + 4 X_2_1
  <= 3
 mtz_2_3:
  + 1 U2 - 1 U3 + 4 X_2_3
  <= 3
 mtz_2_4:
  + 1 U2 - 1 U4 + 4 X_2_4
  <= 3
 mtz_3_1:
  + 1 U3 - 1 U1 + 4 X_3_1
  <= 3
 mtz_3_2:
  + 1 U3 - 1 U2 + 4 X_3_2
  <= 3
 mtz_3_4:
  + 1 U3 - 1 U4 + 4 X_3_4
  <= 3
 mtz_4_1:
  + 1 U4 - 1 U1 + 4 X_4_1
  <= 3
 mtz_4_2:
  + 1 U4 - 1 U2 + 4 X_4_2
  <= 3
 mtz_4_3:
  + 1 U4 - 1 U3 + 4 X_4_3
  <= 3
 obj1:
  + 770 X_0_1 + 131 X_0_2 + 692 X_0_3 + 384 X_0_4 + 770 X_1_0 + 646 X_1_2 + 810 X_1_3 + 681 X_1_4
  + 131 X_2_0 + 646 X_2_1 + 692 X_2_3 + 383 X_2_4 + 692 X_3_0 + 810 X_3_1 + 692 X_3_2 + 310 X_3_4
  + 384 X_4_0 + 681 X_4_1 + 383 X_4_2 + 310 X_4_3
  <= 1
 obj2:
  + 270 X_0_1 + 818 X_0_2 + 305 X_0_3 + 509 X_0_4 + 270 X_1_0 + 566 X_1_2 + 53 X_1_3 + 570 X_1_4
  + 818 X_2_0 + 566 X_2_1 + 559 X_2_3 + 1077 X_2_4 + 305 X_3_0 + 53 X_3_1 + 559 X_3_2 + 548 X_3_4
  + 509 X_4_0 + 570 X_4_1 + 1077 X_4_2 + 548 X_4_3
  <= 2
 obj3:
  + 437 X_0_1 + 393 X_0_2 + 202 X_0_3 + 507 X_0_4 + 437 X_1_0 + 359 X_1_2 + 519 X_1_3 + 91 X_1_4
  + 393 X_2_0 + 359 X_2_1 + 309 X_2_3 + 449 X_2_4 + 202 X_3_0 + 519 X_3_1 + 309 X_3_2 + 605 X_3_4
  + 507 X_4_0 + 91 X_4_1 + 449 X_4_2 + 605 X_4_3
  <= 3
 obj4:
  + 587 X_0_1 + 304 X_0_2 + 205 X_0_3 + 263 X_0_4 + 587 X_1_0 + 633 X_1_2 + 605 X_1_3 + 794 X_1_4
  + 304 X_2_0 + 633 X_2_1 + 508 X_2_3 + 244 X_2_4 + 205 X_3_0 + 605 X_3_1 + 508 X_3_2 + 442 X_3_4
  + 263 X_4_0 + 794 X_4_1 + 244 X_4_2 + 442 X_4_3
  <= 4
 obj5:
  + 303 X_0_1 + 803 X_0_2 + 839 X_0_3 + 635 X_0_4 + 303 X_1_0 + 579 X_1_2 + 685 X_1_3 + 608 X_1_4
  + 803 X_2_0 + 579 X_2_1 + 226 X_2_3 + 476 X_2_4 + 839 X_3_0 + 685 X_3_1 + 226 X_3_2 + 332 X_3_4
  + 635 X_4_0 + 608 X_4_1 + 476 X_4_2 + 332 X_4_3
  <= 5
Bounds
 1 <= U1 <= 4
 1 <= U2 <= 4
 1 <= U3 <= 4
 1 <= U4 <= 4
Binary
 X_0_1
 X_0_2
 X_0_3
 X_0_4
 X_1_0
 X_1_2
 X_1_3
 X_1_4
 X_2_0
 X_2_1
 X_2_3
 X_2_4
 X_3_0
 X_3_1
 X_3_2
 X_3_4
 X_4_0
 X_4_1
 X_4_2
 X_4_3
End
